c 157_3_checker_6cl.cnf
c
c field = 157
c formula set type = 3_checker_6cl
c
p cnf 6 58
306 
308 
310 
-305 
-302 
-314 
307 
309 
311 
-304 
-303 
-315 
306 
308 
310 
-315 
-304 
-316 
307 
309 
311 
-314 
-305 
-317 
308 
310 
314 
-307 
-304 
-316 
309 
311 
315 
-306 
-305 
-317 
308 
310 
314 
-317 
-306 
-318 
309 
311 
315 
-316 
-307 
-319 
310 
314 
316 
-309 
-306 
-318 
311 
315 
317 
-308 
-307 
-319 
310 
314 
316 
-319 
-308 
-320 
311 
315 
317 
-318 
-309 
-321 
314 
316 
318 
-311 
-308 
-320 
315 
317 
319 
-310 
-309 
-321 
314 
316 
318 
-321 
-310 
-322 
315 
317 
319 
-320 
-311 
-323 
222 
252 
282 
-193 
-162 
-342 
223 
253 
283 
-192 
-163 
-343 
222 
252 
282 
-343 
-192 
-372 
223 
253 
283 
-342 
-193 
-373 
252 
282 
342 
-223 
-192 
-372 
253 
283 
343 
-222 
-193 
-373 
252 
282 
342 
-373 
-222 
-402 
253 
283 
343 
-372 
-223 
-403 
282 
342 
372 
-253 
-222 
-402 
283 
343 
373 
-252 
-223 
-403 
282 
342 
372 
-403 
-252 
-432 
283 
343 
373 
-402 
-253 
-433 
342 
372 
402 
-283 
-252 
-432 
343 
373 
403 
-282 
-253 
-433 
216 
248 
280 
-185 
-152 
-344 
217 
249 
281 
-184 
-153 
-345 
216 
248 
280 
-345 
-184 
-376 
217 
249 
281 
-344 
-185 
-377 
248 
280 
344 
-217 
-184 
-376 
249 
281 
345 
-216 
-185 
-377 
248 
280 
344 
-377 
-216 
-408 
249 
281 
345 
-376 
-217 
-409 
280 
344 
376 
-249 
-216 
-408 
281 
345 
377 
-248 
-217 
-409 
280 
344 
376 
-409 
-248 
-440 
281 
345 
377 
-408 
-249 
-441 
344 
376 
408 
-281 
-248 
-440 
345 
377 
409 
-280 
-249 
-441 
228 
256 
284 
-201 
-172 
-340 
229 
257 
285 
-200 
-173 
-341 
228 
256 
284 
-341 
-200 
-368 
229 
257 
285 
-340 
-201 
-369 
256 
284 
340 
-229 
-200 
-368 
257 
285 
341 
-228 
-201 
-369 
256 
284 
340 
-369 
-228 
-396 
257 
285 
341 
-368 
-229 
-397 
284 
340 
368 
-257 
-228 
-396 
285 
341 
369 
-256 
-229 
-397 
284 
340 
368 
-397 
-256 
-424 
285 
341 
369 
-396 
-257 
-425 
340 
368 
396 
-285 
-256 
-424 
341 
369 
397 
-284 
-257 
-425 
